l=1628;
a=5;
setup_costs=[|0,3,3,3,3,
|3,0,3,3,3,
|3,3,1,3,3,
|3,3,3,0,3,
|3,3,3,3,0,
|0,0,0,0,0|];
setup_times=[|1,3,3,3,3,
|3,1,3,3,3,
|3,3,0,3,3,
|3,3,3,1,3,
|3,3,3,3,1,
|0,0,0,0,0|];
m=2;
min_cap=[0,0];
max_cap=[42,44];

initState=[2,4];
s=5;
m_a_s = [|1032,1045,1146,1271,1458,
|0,0,0,0,72|];
m_a_e = [|1036,1146,1182,1374,1526,
|0,0,0,0,1259|];
n=50;
eligible_machine = [{2},
{1},
{2},
{1},
{2,1},
{2},
{2},
{2,1},
{2},
{2},
{1,2},
{2},
{2,1},
{1,2},
{2,1},
{1,2},
{2},
{2},
{2},
{2},
{2},
{1},
{2},
{1,2},
{2},
{1,2},
{1},
{1},
{2},
{2,1},
{2},
{1},
{1},
{1},
{1},
{2,1},
{1,2},
{1},
{2,1},
{1,2},
{1},
{2},
{1},
{1},
{1},
{1},
{2},
{1},
{2},
{2}];
earliest_start=[112,57,19,19,103,62,111,13,31,60,73,77,88,106,87,54,95,81,69,34,96,48,22,14,30,83,62,49,22,96,83,28,7,57,85,62,107,46,19,56,105,59,18,72,73,105,79,57,56,95];
latest_end=[117,60,29,34,106,72,121,14,32,67,75,78,97,115,89,62,103,82,74,35,100,56,24,26,31,89,70,50,34,106,89,42,9,68,91,65,119,61,22,59,106,66,19,83,75,112,85,61,71,106];
min_time=[4,3,7,10,2,7,6,1,1,4,2,1,6,7,2,6,5,1,4,1,3,6,2,9,1,6,7,1,7,7,6,8,2,9,4,2,7,8,2,2,1,6,1,7,2,6,5,3,9,10];
max_time=[8,4,7,10,8,8,8,6,7,4,7,3,10,9,6,7,6,3,4,9,7,6,9,10,1,9,10,8,10,10,7,9,6,9,9,10,8,9,10,8,1,6,9,8,4,8,6,10,10,10];
size=[2,2,3,4,5,4,2,1,1,5,4,2,2,3,3,1,1,3,3,2,2,2,5,1,3,2,5,5,1,1,2,4,1,5,4,5,3,1,2,2,2,2,3,2,4,4,4,1,2,3];
attribute=[2,3,1,2,5,1,1,1,5,3,5,4,5,3,2,3,2,5,2,1,2,2,2,1,4,2,5,2,4,4,5,3,5,5,5,1,4,2,5,2,3,4,5,3,5,3,5,2,4,3];

upper_bound_integer_objective=78750;
mult_factor_total_runtime=12;
mult_factor_finished_toolate=1500;
mult_factor_total_setuptimes=0;
mult_factor_total_setupcosts=5;
running_time_bound=229;
min_duration=1;
max_duration=10;
max_setup_time=3;
max_setup_cost=3;
